data/lp_files/q3/48_6.lp
\ Model foo
\ LP format - for model browsing. Use MPS format to capture full model detail.
Minimize
  z
Subject To
 allocateEach[1]: x[1,1] + x[2,1] + x[3,1] = 1
 allocateEach[2]: x[1,2] + x[2,2] + x[3,2] = 1
 allocateEach[3]: x[1,3] + x[2,3] + x[3,3] = 1
 allocateEach[4]: x[1,4] + x[2,4] + x[3,4] = 1
 allocateEach[5]: x[1,5] + x[2,5] + x[3,5] = 1
 allocateEach[6]: x[1,6] + x[2,6] + x[3,6] = 1
 allocateEach[7]: x[1,7] + x[2,7] + x[3,7] = 1
 allocateEach[8]: x[1,8] + x[2,8] + x[3,8] = 1
 allocateAllCash: cashProportion[1] + cashProportion[2] + cashProportion[3]
   = 1
 findWorstP[1,2]: z + 0.0809028760972453 cashProportion[1]
   - 0.0809028760972453 cashProportion[2] + 0.1350269002063023 x[1,1]
   + 0.1719186117066462 x[1,2] + 0.0739250030338578 x[1,3]
   + 0.1541199789652522 x[1,4] + 0.1549694591642733 x[1,5]
   + 0.071659722503135 x[1,6] + 0.060353545568545 x[1,7]
   + 0.0971239027547429 x[1,8] - 0.1350269002063023 x[2,1]
   - 0.1719186117066462 x[2,2] - 0.0739250030338578 x[2,3]
   - 0.1541199789652522 x[2,4] - 0.1549694591642733 x[2,5]
   - 0.071659722503135 x[2,6] - 0.060353545568545 x[2,7]
   - 0.0971239027547429 x[2,8] >= 0
 findWorstP[1,3]: z + 0.0809028760972453 cashProportion[1]
   - 0.0809028760972453 cashProportion[3] + 0.1350269002063023 x[1,1]
   + 0.1719186117066462 x[1,2] + 0.0739250030338578 x[1,3]
   + 0.1541199789652522 x[1,4] + 0.1549694591642733 x[1,5]
   + 0.071659722503135 x[1,6] + 0.060353545568545 x[1,7]
   + 0.0971239027547429 x[1,8] - 0.1350269002063023 x[3,1]
   - 0.1719186117066462 x[3,2] - 0.0739250030338578 x[3,3]
   - 0.1541199789652522 x[3,4] - 0.1549694591642733 x[3,5]
   - 0.071659722503135 x[3,6] - 0.060353545568545 x[3,7]
   - 0.0971239027547429 x[3,8] >= 0
 findWorstP[2,1]: z - 0.1210910301819393 cashProportion[1]
   + 0.1210910301819393 cashProportion[2] - 6.9627342354615081e-04 x[1,1]
   - 0.0731389822298913 x[1,2] - 0.0547028728846911 x[1,3]
   - 0.2279235915599552 x[1,4] - 0.1453395089758726 x[1,5]
   - 0.1215451215451216 x[1,6] - 0.2346441437350528 x[1,7]
   - 0.02091847546393 x[1,8] + 6.9627342354615081e-04 x[2,1]
   + 0.0731389822298913 x[2,2] + 0.0547028728846911 x[2,3]
   + 0.2279235915599552 x[2,4] + 0.1453395089758726 x[2,5]
   + 0.1215451215451216 x[2,6] + 0.2346441437350528 x[2,7]
   + 0.02091847546393 x[2,8] >= 0
 findWorstP[2,3]: z + 0.1210910301819393 cashProportion[2]
   - 0.1210910301819393 cashProportion[3] + 6.9627342354615081e-04 x[2,1]
   + 0.0731389822298913 x[2,2] + 0.0547028728846911 x[2,3]
   + 0.2279235915599552 x[2,4] + 0.1453395089758726 x[2,5]
   + 0.1215451215451216 x[2,6] + 0.2346441437350528 x[2,7]
   + 0.02091847546393 x[2,8] - 6.9627342354615081e-04 x[3,1]
   - 0.0731389822298913 x[3,2] - 0.0547028728846911 x[3,3]
   - 0.2279235915599552 x[3,4] - 0.1453395089758726 x[3,5]
   - 0.1215451215451216 x[3,6] - 0.2346441437350528 x[3,7]
   - 0.02091847546393 x[3,8] >= 0
 findWorstP[3,1]: z - 0.1301786702248837 cashProportion[1]
   + 0.1301786702248837 cashProportion[3] - 0.1719985680346275 x[1,1]
   - 0.0508673153903733 x[1,2] - 0.0749503693819768 x[1,3]
   - 0.1534806521951378 x[1,4] - 0.2736681094802617 x[1,5]
   - 0.0281185927685749 x[1,6] - 0.0744621993686334 x[1,7]
   - 0.042275523155531 x[1,8] + 0.1719985680346275 x[3,1]
   + 0.0508673153903733 x[3,2] + 0.0749503693819768 x[3,3]
   + 0.1534806521951378 x[3,4] + 0.2736681094802617 x[3,5]
   + 0.0281185927685749 x[3,6] + 0.0744621993686334 x[3,7]
   + 0.042275523155531 x[3,8] >= 0
 findWorstP[3,2]: z - 0.1301786702248837 cashProportion[2]
   + 0.1301786702248837 cashProportion[3] - 0.1719985680346275 x[2,1]
   - 0.0508673153903733 x[2,2] - 0.0749503693819768 x[2,3]
   - 0.1534806521951378 x[2,4] - 0.2736681094802617 x[2,5]
   - 0.0281185927685749 x[2,6] - 0.0744621993686334 x[2,7]
   - 0.042275523155531 x[2,8] + 0.1719985680346275 x[3,1]
   + 0.0508673153903733 x[3,2] + 0.0749503693819768 x[3,3]
   + 0.1534806521951378 x[3,4] + 0.2736681094802617 x[3,5]
   + 0.0281185927685749 x[3,6] + 0.0744621993686334 x[3,7]
   + 0.042275523155531 x[3,8] >= 0
Bounds
 z <= 1
 -infinity <= cashProportion[1] <= 1
 -infinity <= cashProportion[2] <= 1
 -infinity <= cashProportion[3] <= 1
Binaries
 x[1,1] x[1,2] x[1,3] x[1,4] x[1,5] x[1,6] x[1,7] x[1,8] x[2,1] x[2,2]
 x[2,3] x[2,4] x[2,5] x[2,6] x[2,7] x[2,8] x[3,1] x[3,2] x[3,3] x[3,4]
 x[3,5] x[3,6] x[3,7] x[3,8]
End
